c Created with the Wolfram Language : www.wolfram.com
c 
p edge 70 348
e 2 9
e 5 9
e 7 9
e 7 10
e 1 11
e 6 13
e 10 13
e 4 14
e 11 14
e 4 15
e 1 16
e 4 16
e 9 16
e 12 16
e 5 18
e 8 18
e 14 18
e 15 18
e 4 19
e 4 20
e 12 20
e 13 20
e 17 20
e 15 21
e 20 21
e 1 22
e 9 22
e 12 22
e 19 22
e 2 23
e 12 23
e 15 23
e 20 23
e 22 23
e 9 24
e 16 24
e 18 24
e 1 25
e 3 25
e 5 25
e 8 25
e 9 25
e 16 25
e 18 25
e 21 25
e 23 25
e 19 26
e 22 26
e 23 26
e 3 27
e 5 27
e 11 27
e 16 27
e 22 27
e 3 28
e 1 29
e 26 29
e 28 29
e 1 30
e 2 30
e 11 30
e 1 31
e 7 31
e 9 31
e 15 31
e 30 31
e 1 32
e 4 32
e 6 32
e 22 32
e 25 32
e 28 32
e 2 33
e 17 33
e 26 33
e 8 34
e 11 34
e 15 34
e 17 34
e 23 34
e 32 34
e 33 34
e 5 35
e 9 35
e 13 35
e 21 35
e 22 35
e 8 36
e 9 36
e 15 36
e 20 36
e 10 37
e 12 37
e 24 37
e 25 37
e 32 37
e 5 38
e 6 38
e 18 38
e 22 38
e 26 38
e 29 38
e 3 39
e 19 39
e 26 39
e 2 40
e 6 40
e 10 40
e 22 40
e 33 40
e 34 40
e 15 41
e 16 41
e 18 41
e 26 41
e 2 42
e 7 42
e 9 42
e 20 42
e 30 42
e 38 42
e 4 43
e 18 43
e 30 43
e 34 43
e 39 43
e 40 43
e 42 43
e 1 44
e 10 44
e 30 44
e 16 45
e 18 45
e 23 45
e 25 45
e 28 45
e 33 45
e 36 45
e 38 45
e 44 45
e 1 46
e 3 46
e 13 46
e 17 46
e 20 46
e 37 46
e 38 46
e 39 46
e 41 46
e 4 47
e 18 47
e 21 47
e 39 47
e 1 48
e 6 48
e 7 48
e 10 48
e 39 48
e 5 49
e 27 49
e 28 49
e 37 49
e 40 49
e 47 49
e 5 50
e 8 50
e 15 50
e 17 50
e 27 50
e 39 50
e 45 50
e 5 51
e 10 51
e 12 51
e 20 51
e 24 51
e 27 51
e 28 51
e 39 51
e 42 51
e 46 51
e 49 51
e 1 52
e 9 52
e 19 52
e 23 52
e 44 52
e 2 53
e 4 53
e 12 53
e 20 53
e 22 53
e 23 53
e 43 53
e 52 53
e 1 54
e 9 54
e 22 54
e 32 54
e 40 54
e 43 54
e 45 54
e 3 55
e 13 55
e 35 55
e 38 55
e 39 55
e 40 55
e 45 55
e 54 55
e 9 56
e 30 56
e 32 56
e 39 56
e 42 56
e 7 57
e 17 57
e 22 57
e 35 57
e 47 57
e 51 57
e 54 57
e 15 58
e 24 58
e 34 58
e 37 58
e 39 58
e 48 58
e 5 59
e 6 59
e 9 59
e 12 59
e 23 59
e 43 59
e 45 59
e 2 60
e 10 60
e 13 60
e 16 60
e 18 60
e 21 60
e 24 60
e 25 60
e 34 60
e 54 60
e 5 61
e 11 61
e 14 61
e 19 61
e 22 61
e 27 61
e 40 61
e 47 61
e 60 61
e 8 62
e 9 62
e 11 62
e 14 62
e 19 62
e 21 62
e 24 62
e 40 62
e 47 62
e 50 62
e 56 62
e 61 62
e 7 63
e 17 63
e 20 63
e 22 63
e 28 63
e 31 63
e 34 63
e 35 63
e 41 63
e 42 63
e 43 63
e 45 63
e 49 63
e 57 63
e 9 64
e 15 64
e 23 64
e 28 64
e 29 64
e 32 64
e 35 64
e 36 64
e 39 64
e 41 64
e 42 64
e 43 64
e 52 64
e 16 65
e 19 65
e 22 65
e 33 65
e 46 65
e 49 65
e 2 66
e 6 66
e 10 66
e 25 66
e 27 66
e 28 66
e 30 66
e 32 66
e 33 66
e 44 66
e 59 66
e 5 67
e 10 67
e 16 67
e 32 67
e 33 67
e 34 67
e 39 67
e 47 67
e 53 67
e 55 67
e 66 67
e 3 68
e 5 68
e 8 68
e 20 68
e 32 68
e 52 68
e 61 68
e 64 68
e 65 68
e 66 68
e 6 69
e 7 69
e 27 69
e 36 69
e 42 69
e 59 69
e 3 70
e 10 70
e 20 70
e 23 70
e 30 70
e 34 70
e 36 70
e 42 70
e 46 70
e 59 70
e 60 70
